573218 5362.31
206679 317819
571862 5413.08
422638 103210
4794.27 539120
59057.3 466923
526074 26013.3
215719 311213
507818 35169.2
384458 143626
509247 73875
101759 426739
26013.3 528359
214723 314306
189258 352630
461787 85947.3
408700 120472
371339 164580
303118 226231
321899 223150
135618 394130
480326 74638.4
103311 426579
463563 172031
378211 152279
15200.6 536249
118241 416016
339280 197577
622287 154382
429757 132100
271700 259554
481066 78493.2
50022.6 481631
258457 374146
109791 421976
322859 290514
411648 120180
89628.6 629818
88022 455410
255542 283078
480484 60795.7
188156 399121
76835.6 455988
214105 539706
215719 317318
406009 128585
413008 120472
96372.8 440683
115887 417729
669797 109257
346225 189329
57279.1 480423
637893 137628
278059 424059
217196 317819
484937 263356
412248 122843
107774 640886
269843 416367
109791 426253
314672 293438
74422.5 461664
380461 407114
206643 329567
220628 492746
242864 293521
311567 224918
57279.1 479146
157265 492015
103566 661266
672635 104761
279558 485989
35169.2 515818
